x02m05e0t1tp5
3216
3216
3216
3216
3269
3269
3269
3269
3269
3269
3269
3269
3269
3269
3269
3269
3269
3269
3323
3323
3323
3323
3323
3323
3323
3323
3461
3461
3461
3461
3461
3461
3461
3461
3461
3461
3461
3461
3461
3461
3461
3461
3461
3461
3461
3461
3461
3461
3461
3461
3461
3461
3461
3461
3461
3461
3461
3461
3461
3461
3461
3461
3461
3461
3461
3461
3461
3461
3461
3461
3461
3461
3461
3461
3461
3461
3461
3461
3461
3461
3461
3461
3461
3461
3461
3461
3461
3461
3461
3461
3461
3465
3465
3465
3465
3465
3465
3465
3465
3465
3465
3465
3465
3465
3465
3465
3465
3465
3465
3465
3465
3465
3465
3465
3465
3465
3465
3465
3465
3465
3465
3465
3465
3465
3465
3465
3465
3465
3465
3465
3465
3465
3627
3627
3627
3627
3627
3627
3627
3627
3627
3627
3627
3627
3627
3627
3627
3627
3627
3627
3627
3627
3627
3627
3627
3627
3627
3627
3627
3627
3627
3627
3627
3627
3627
3627
3627
3627
3627
3627
3627
3627
3627
3627
3627
3627
3627
3627
3627
3627
3627
3627
3627
3627
3627
3627
3627
3627
3627
3627
3627
3627
3627
3627
3627
3627
3627
3627
3627
3627
3627
3627
3627
3627
3627
3627
3627
3627
3627
3627
3627
3627
3627
3627
3627
3627
3627
3627
3627
3627
3627
3627
3627
3627
3627
3627
3627
3627
3627
3627
3627
3627
3627
3627
3627
3627
3627
3627
3627
3627
3627
3627
3627
3627
3627
3627
3627
3627
3627
3627
3627
3627
3627
3627
3627
3627
3627
3627
3627
3627
3627
3627
3627
3627
3627
3627
3627
3627
3627
3627
3627
3627
3627
3627
3627
3627
3627
3627
3627
3627
3627
3627
3627
3627
3627
3627
3627
3627
3627
3627
3627
3627
3627
3627
3627
3627
3627
3627
3627
3627
3627
3627
3627
3627
3627
3627
3627
3627
3627
3627
3627
3627
3627
3627
3627
3627
3627
3627
3627
3627
3627
3627
3627
3627
3627
3627
3627
3627
3627
3627
3627
3627
3627
3627
3627
3627
3627
3627
3627
3627
3627
3627
3627
3627
3627
3627
3627
3627
3627
3627
3627
3627
3627
3627
3627
3627
3627
3627
3627
3627
3627
3627
3627
3627
3627
3627
3627
3627
3627
3627
3627
3627
3627
3627
3627
3627
3627
3627
3627
3627
3627
3627
3627
3627
3627
3627
3627
3627
3627
3627
3627
3627
3627
3627
3627
3627
3627
3627
3627
3627
3627
3627
3627
3627
3627
3627
3627
3627
3627
3627
3627
3627
3627
3627
3627
3627
3627
3627
3627
3627
3627
3627
3627
3627
3627
3627
3627
3627
3627
3627
3627
3627
3627
3627
3627
3627
3627
3627
3627
3627
3627
3627
3627
3627
3627
3627
3627
3627
3627
3627
3627
3627
3627
3627
3627
3627
3627
3627
3627
3627
3627
3627
3627
3627
3627
3627
3627
3627
3627
3627
3627
3627
3627
3627
3627
3627
3627
3627
3627
3627
3627
3627
3627
3627
3627
3627
3627
3627
3627
3627
3627
3627
3627
3627
3627
3627
3627
3627
3627
3627
3627
3627
3627
3627
3627
3627
3627
3627
3627
3627
3627
3627
3627
3627
3627
3627
3627
3627
3627
3627
3627
3627
3627
3627
3627
3627
3627
3627
3627
3627
3627
3627
3627
3627
3627
3627
3627
3627
3627
3627
3627
3627
3627
3627
3627
3627
3627
3627
3627
3627
3627
3627
3627
3627
3627
3627
3627
3627
3627
3627
3627
3627
3627
3627
3627
3627
3627
3627
3627
3627
3627
3627
3627
3627
3627
3627
3627
3627
3627
3627
3627
3627
3627
3627
3627
3627
3627
3627
3627
3627
3627
3627
3627
3627
3627
3627
3627
3627
3627
3627
3627
3627
3627
3627
3627
3627
3627
3627
3627
3627
3627
3627
3627
3627
3627
3627
3627
3627
3627
3627
3627
3627
3627
3627
3627
3627
3627
3627
3627
3627
3627
3627
3627
3627
3627
3627
3627
3627
3627
3627
3627
3627
3627
3627
3627
3627
3627
3627
3627
3627
3627
3627
3627
3627
3627
3627
3627
3627
3627
3627
3627
3627
3627
3627
3627
3627
3627
3627
3627
3627
3627
3627
3627
3627
3627
3627
3627
3627
3627
3627
3627
3627
3627
3627
3627
3627
3627
3627
3627
3627
3627
3627
3627
3627
3627
3627
3627
3627
3627
3627
3627
3627
3627
3627
3627
3627
3627
3627
3627
3627
3627
3627
3627
3627
3627
3627
3627
3627
3627
3627
3627
3627
3627
3627
3627
3627
3627
3627
3627
3627
3627
3627
3627
3627
3627
3627
3627
3627
3627
3627
3627
3627
3627
3627
3627
3627
3627
3627
3627
3627
3627
3627
3627
3627
3627
3627
3627
3627
3627
3627
3627
3627
3627
3627
3627
3627
3627
3627
3627
3627
3627
3627
3627
3627
3627
3627
3627
3627
3627
3627
3627
3627
3627
3627
3627
3627
3627
3627
3627
3627
3627
3627
3627
3627
3627
3627
3627
3627
3627
3627
3627
3627
3627
3627
3627
3627
3627
3627
3627
3627
3627
3627
3627
3627
3627
3627
3627
3627
3627
3627
3627
3627
3627
3627
3627
3627
3627
3627
3627
3627
3627
3627
3627
3627
3627
3627
3627
3627
3627
3627
3627
3627
3627
3627
3627
3627
3627
3627
3627
3627
3627
3627
3627
3627
3627
3627
3627
3627
3627
3627
3627
3627
3627
3627
3627
3627
3627
3627
3627
3627
3627
3627
3627
3627
3627
3627
3627
3627
3627
3627
3627
3627
3627
3627
3627
3627
3627
3627
3627
3627
3627
3627
3627
3627
3627
3627
3627
3627
3627
3627
3627
3627
3627
3627
3627
3627
3627
3627
3627
3627
3627
3627
3627
3627
3627
3627
3627
3627
3627
3627
3627
3627
3627
3627
3627
3627
3627
3627
3627
3627
3627
3627
3627
3627
3627
3627
3627
3627
3627
3627
3627
3627
3627
3627
3627
3627
3627
3627
3627
3627
3627
3627
3627
3627
3627
3627
3627
3627
3627
3627
3627
3627
3627
3627
3627
3627
3627
3627
3627
3627
3627
3627
3627
3627
3627
3627
3627
3627
3627
3627
3627
3627
3627
3627
3627
3627
3627
3627
3627
3627
3627
3627
3627
3627
3627
3627
3627
3627
3627
3627
